CPXPARAM_TimeLimit                               3600
CPXPARAM_Read_DataCheck                          1
Tried aggregator 1 time.
MIP Presolve eliminated 2500 rows and 0 columns.
MIP Presolve modified 4381 coefficients.
Reduced MIP has 169380 rows, 54451 columns, and 612024 nonzeros.
Reduced MIP has 2850 binaries, 0 generals, 0 SOSs, and 0 indicators.
Presolve time = 0.15 sec. (225.62 ticks)
Found incumbent of value 11372.000000 after 0.29 sec. (397.96 ticks)
Probing fixed 0 vars, tightened 4 bounds.
Probing time = 0.05 sec. (38.94 ticks)
Tried aggregator 1 time.
Reduced MIP has 169380 rows, 54451 columns, and 612024 nonzeros.
Reduced MIP has 2850 binaries, 0 generals, 0 SOSs, and 0 indicators.
Presolve time = 0.30 sec. (305.26 ticks)
Probing time = 0.04 sec. (25.97 ticks)
MIP emphasis: balance optimality and feasibility.
MIP search method: dynamic search.
Parallel mode: deterministic, using up to 8 threads.
Root relaxation solution time = 311.30 sec. (70352.27 ticks)

        Nodes                                         Cuts/
   Node  Left     Objective  IInf  Best Integer    Best Bound    ItCnt     Gap

*     0+    0                        11372.0000      936.0000            91.77%
*     0+    0                        11177.0000      936.0000            91.63%
      0     0     1053.3252  2415    11177.0000     1053.3252   138845   90.58%
      0     0     1059.7153  2565    11177.0000    Cuts: 1098   224845   90.52%
      0     0     1061.2286  2598    11177.0000    Cuts: 1908   319348   90.51%
      0     0     1064.1705  2594    11177.0000    Cuts: 1842   457867   90.48%

Implied bound cuts applied:  304
Flow cuts applied:  672
Mixed integer rounding cuts applied:  1391
Lift and project cuts applied:  1
Gomory fractional cuts applied:  21

Root node processing (before b&c):
  Real time             = 3600.07 sec. (2233092.31 ticks)
Parallel b&c, 8 threads:
  Real time             =    0.00 sec. (0.00 ticks)
  Sync time (average)   =    0.00 sec.
  Wait time (average)   =    0.00 sec.
                          ------------
Total (root+branch&cut) = 3600.07 sec. (2233092.31 ticks)
